data;
param nombreJob := 2;
param nombreRessource := 3;
param duree := 1 8 2 8;
param capaciteRessource := 1 5 2 9 3 13;
param besoinRessource : 1 2 3 :=
                    1   3 8 7
                    2   2 2 1;
end;

